; benchmark generated from python API
(set-info :status unknown)
(declare-fun bool.b6 () Bool)
(declare-fun bool.b5 () Bool)
(declare-fun bool.b7 () Bool)
(declare-fun bool.b22 () Bool)
(declare-fun x4 () Real)
(declare-fun x3 () Real)
(declare-fun x5 () Real)
(assert
 (forall ((?lambda Real) )(let (($x22588 (not bool.b22)))
 (let (($x6452 (exists ((?lambdaprime Real) )(! (let (($x22588 (not bool.b22)))
 (let (($x1035 (not (<= (* (- 1.0) (+ x3 (* 1.0 ?lambdaprime))) (- 20.0)))))
 (let (($x30744 (and $x1035 (not (<= (* (- 1.0) (+ x4 (* 20.0 ?lambdaprime))) (- 4910.0))))))
 (let (($x39109 (and (not $x30744) (and $x22588 (and (not bool.b7) (and (not bool.b5) bool.b6))))))
 (let (($x11763 (and $x1035 (not (<= (* (- 1.0) (+ x4 (* 20.0 ?lambdaprime))) (- 4500.0))))))
 (let (($x13496 (and (not $x11763) (and $x22588 (and bool.b7 (and (not bool.b5) (not bool.b6)))))))
 (let (($x1242 (and $x1035 (not (<= (* (- 1.0) (+ x4 (* 20.0 ?lambdaprime))) (- 4100.0))))))
 (let (($x9372 (and (not $x1242) (and $x22588 (and (not bool.b7) (and (not bool.b5) (not bool.b6)))))))
 (let (($x636 (and (not (<= (* (- 1.0) (+ x5 (* 1.0 ?lambdaprime))) (- 10.0))) (and (and (not $x9372) (not $x13496)) (not $x39109)))))
 (and (and (<= 0.0 ?lambdaprime) (<= ?lambdaprime ?lambda)) (not $x636))))))))))) :qid k!22))
 ))
 (or (or $x6452 (< ?lambda 0.0)) (not (and $x22588 (and (not bool.b7) (and bool.b5 (not bool.b6)))))))))
 )
(check-sat)
